c File: flat50_3_0.col
c
c SOURCE: Joseph Culberson (joe@cs.ualberta.ca)
c DESCRIPTION: Quasi-random coloring problem
c              generated with flatness = 0
c                             probability = 0.139
c                             known coloring = 3
c                             random seed = 1969
c              Creation Date:  Tue Jun  9 12:22:23 1998
c Maximum degree = 7 Minimum degree = 1
c p edge 50 115
c cnf created by edge2cnf
p cnf 150 545
-1 -2 0
-1 -3 0
-2 -3 0
1 2 3 0
-4 -5 0
-4 -6 0
-5 -6 0
4 5 6 0
-7 -8 0
-7 -9 0
-8 -9 0
7 8 9 0
-10 -11 0
-10 -12 0
-11 -12 0
10 11 12 0
-13 -14 0
-13 -15 0
-14 -15 0
13 14 15 0
-16 -17 0
-16 -18 0
-17 -18 0
16 17 18 0
-19 -20 0
-19 -21 0
-20 -21 0
19 20 21 0
-22 -23 0
-22 -24 0
-23 -24 0
22 23 24 0
-25 -26 0
-25 -27 0
-26 -27 0
25 26 27 0
-28 -29 0
-28 -30 0
-29 -30 0
28 29 30 0
-31 -32 0
-31 -33 0
-32 -33 0
31 32 33 0
-34 -35 0
-34 -36 0
-35 -36 0
34 35 36 0
-37 -38 0
-37 -39 0
-38 -39 0
37 38 39 0
-40 -41 0
-40 -42 0
-41 -42 0
40 41 42 0
-43 -44 0
-43 -45 0
-44 -45 0
43 44 45 0
-46 -47 0
-46 -48 0
-47 -48 0
46 47 48 0
-49 -50 0
-49 -51 0
-50 -51 0
49 50 51 0
-52 -53 0
-52 -54 0
-53 -54 0
52 53 54 0
-55 -56 0
-55 -57 0
-56 -57 0
55 56 57 0
-58 -59 0
-58 -60 0
-59 -60 0
58 59 60 0
-61 -62 0
-61 -63 0
-62 -63 0
61 62 63 0
-64 -65 0
-64 -66 0
-65 -66 0
64 65 66 0
-67 -68 0
-67 -69 0
-68 -69 0
67 68 69 0
-70 -71 0
-70 -72 0
-71 -72 0
70 71 72 0
-73 -74 0
-73 -75 0
-74 -75 0
73 74 75 0
-76 -77 0
-76 -78 0
-77 -78 0
76 77 78 0
-79 -80 0
-79 -81 0
-80 -81 0
79 80 81 0
-82 -83 0
-82 -84 0
-83 -84 0
82 83 84 0
-85 -86 0
-85 -87 0
-86 -87 0
85 86 87 0
-88 -89 0
-88 -90 0
-89 -90 0
88 89 90 0
-91 -92 0
-91 -93 0
-92 -93 0
91 92 93 0
-94 -95 0
-94 -96 0
-95 -96 0
94 95 96 0
-97 -98 0
-97 -99 0
-98 -99 0
97 98 99 0
-100 -101 0
-100 -102 0
-101 -102 0
100 101 102 0
-103 -104 0
-103 -105 0
-104 -105 0
103 104 105 0
-106 -107 0
-106 -108 0
-107 -108 0
106 107 108 0
-109 -110 0
-109 -111 0
-110 -111 0
109 110 111 0
-112 -113 0
-112 -114 0
-113 -114 0
112 113 114 0
-115 -116 0
-115 -117 0
-116 -117 0
115 116 117 0
-118 -119 0
-118 -120 0
-119 -120 0
118 119 120 0
-121 -122 0
-121 -123 0
-122 -123 0
121 122 123 0
-124 -125 0
-124 -126 0
-125 -126 0
124 125 126 0
-127 -128 0
-127 -129 0
-128 -129 0
127 128 129 0
-130 -131 0
-130 -132 0
-131 -132 0
130 131 132 0
-133 -134 0
-133 -135 0
-134 -135 0
133 134 135 0
-136 -137 0
-136 -138 0
-137 -138 0
136 137 138 0
-139 -140 0
-139 -141 0
-140 -141 0
139 140 141 0
-142 -143 0
-142 -144 0
-143 -144 0
142 143 144 0
-145 -146 0
-145 -147 0
-146 -147 0
145 146 147 0
-148 -149 0
-148 -150 0
-149 -150 0
148 149 150 0
-52 -1 0
-53 -2 0
-54 -3 0
-55 -1 0
-56 -2 0
-57 -3 0
-94 -1 0
-95 -2 0
-96 -3 0
-97 -1 0
-98 -2 0
-99 -3 0
-106 -1 0
-107 -2 0
-108 -3 0
-133 -1 0
-134 -2 0
-135 -3 0
-67 -4 0
-68 -5 0
-69 -6 0
-76 -4 0
-77 -5 0
-78 -6 0
-88 -4 0
-89 -5 0
-90 -6 0
-91 -4 0
-92 -5 0
-93 -6 0
-112 -4 0
-113 -5 0
-114 -6 0
-142 -4 0
-143 -5 0
-144 -6 0
-64 -7 0
-65 -8 0
-66 -9 0
-73 -7 0
-74 -8 0
-75 -9 0
-91 -7 0
-92 -8 0
-93 -9 0
-100 -7 0
-101 -8 0
-102 -9 0
-103 -7 0
-104 -8 0
-105 -9 0
-124 -7 0
-125 -8 0
-126 -9 0
-133 -7 0
-134 -8 0
-135 -9 0
-55 -10 0
-56 -11 0
-57 -12 0
-64 -10 0
-65 -11 0
-66 -12 0
-88 -10 0
-89 -11 0
-90 -12 0
-94 -10 0
-95 -11 0
-96 -12 0
-121 -10 0
-122 -11 0
-123 -12 0
-85 -13 0
-86 -14 0
-87 -15 0
-121 -13 0
-122 -14 0
-123 -15 0
-139 -13 0
-140 -14 0
-141 -15 0
-148 -13 0
-149 -14 0
-150 -15 0
-73 -16 0
-74 -17 0
-75 -18 0
-100 -16 0
-101 -17 0
-102 -18 0
-103 -16 0
-104 -17 0
-105 -18 0
-64 -19 0
-65 -20 0
-66 -21 0
-79 -19 0
-80 -20 0
-81 -21 0
-112 -19 0
-113 -20 0
-114 -21 0
-118 -19 0
-119 -20 0
-120 -21 0
-133 -19 0
-134 -20 0
-135 -21 0
-136 -19 0
-137 -20 0
-138 -21 0
-55 -22 0
-56 -23 0
-57 -24 0
-79 -22 0
-80 -23 0
-81 -24 0
-127 -22 0
-128 -23 0
-129 -24 0
-145 -22 0
-146 -23 0
-147 -24 0
-79 -25 0
-80 -26 0
-81 -27 0
-118 -25 0
-119 -26 0
-120 -27 0
-130 -25 0
-131 -26 0
-132 -27 0
-148 -25 0
-149 -26 0
-150 -27 0
-55 -28 0
-56 -29 0
-57 -30 0
-58 -28 0
-59 -29 0
-60 -30 0
-88 -28 0
-89 -29 0
-90 -30 0
-109 -28 0
-110 -29 0
-111 -30 0
-136 -28 0
-137 -29 0
-138 -30 0
-70 -31 0
-71 -32 0
-72 -33 0
-76 -31 0
-77 -32 0
-78 -33 0
-97 -31 0
-98 -32 0
-99 -33 0
-115 -31 0
-116 -32 0
-117 -33 0
-127 -31 0
-128 -32 0
-129 -33 0
-52 -34 0
-53 -35 0
-54 -36 0
-64 -34 0
-65 -35 0
-66 -36 0
-82 -34 0
-83 -35 0
-84 -36 0
-106 -34 0
-107 -35 0
-108 -36 0
-109 -34 0
-110 -35 0
-111 -36 0
-127 -34 0
-128 -35 0
-129 -36 0
-94 -37 0
-95 -38 0
-96 -39 0
-115 -37 0
-116 -38 0
-117 -39 0
-118 -37 0
-119 -38 0
-120 -39 0
-82 -40 0
-83 -41 0
-84 -42 0
-106 -40 0
-107 -41 0
-108 -42 0
-112 -40 0
-113 -41 0
-114 -42 0
-52 -43 0
-53 -44 0
-54 -45 0
-88 -43 0
-89 -44 0
-90 -45 0
-103 -43 0
-104 -44 0
-105 -45 0
-76 -46 0
-77 -47 0
-78 -48 0
-100 -46 0
-101 -47 0
-102 -48 0
-118 -46 0
-119 -47 0
-120 -48 0
-127 -46 0
-128 -47 0
-129 -48 0
-130 -46 0
-131 -47 0
-132 -48 0
-148 -46 0
-149 -47 0
-150 -48 0
-91 -49 0
-92 -50 0
-93 -51 0
-139 -52 0
-140 -53 0
-141 -54 0
-118 -55 0
-119 -56 0
-120 -57 0
-130 -58 0
-131 -59 0
-132 -60 0
-148 -58 0
-149 -59 0
-150 -60 0
-121 -61 0
-122 -62 0
-123 -63 0
-124 -61 0
-125 -62 0
-126 -63 0
-133 -61 0
-134 -62 0
-135 -63 0
-139 -61 0
-140 -62 0
-141 -63 0
-127 -64 0
-128 -65 0
-129 -66 0
-136 -64 0
-137 -65 0
-138 -66 0
-109 -67 0
-110 -68 0
-111 -69 0
-112 -67 0
-113 -68 0
-114 -69 0
-139 -67 0
-140 -68 0
-141 -69 0
-127 -70 0
-128 -71 0
-129 -72 0
-130 -70 0
-131 -71 0
-132 -72 0
-145 -70 0
-146 -71 0
-147 -72 0
-106 -73 0
-107 -74 0
-108 -75 0
-112 -73 0
-113 -74 0
-114 -75 0
-121 -73 0
-122 -74 0
-123 -75 0
-124 -73 0
-125 -74 0
-126 -75 0
-118 -76 0
-119 -77 0
-120 -78 0
-145 -76 0
-146 -77 0
-147 -78 0
-106 -79 0
-107 -80 0
-108 -81 0
-148 -79 0
-149 -80 0
-150 -81 0
-121 -82 0
-122 -83 0
-123 -84 0
-148 -82 0
-149 -83 0
-150 -84 0
-124 -85 0
-125 -86 0
-126 -87 0
-142 -85 0
-143 -86 0
-144 -87 0
-109 -88 0
-110 -89 0
-111 -90 0
-115 -88 0
-116 -89 0
-117 -90 0
-130 -88 0
-131 -89 0
-132 -90 0
-142 -91 0
-143 -92 0
-144 -93 0
-121 -94 0
-122 -95 0
-123 -96 0
-145 -94 0
-146 -95 0
-147 -96 0
-118 -97 0
-119 -98 0
-120 -99 0
-127 -97 0
-128 -98 0
-129 -99 0
-139 -97 0
-140 -98 0
-141 -99 0
-106 -100 0
-107 -101 0
-108 -102 0
